150 7185
1 87 34 76 73 48 63 30 96 89 7 84 8 124 35 93 126 52 33 92 54 46 90 56 83 141 58 55 50 135 102 114 99 19 2 37 6 28 9 42 120 47 139 40 53 12 116 67 38 32 23 14 80 72 64 44 71 150 115 21 78 15 133 122 77 131 43 24 118 127 69 36 61 11 148 130 17 66 60 140 117 57 39 101 41 27 129 144 49 147 145 31 123 74 136 112 13 106 91 119 68 128 45 4 104 22 125 149 62 3 113 10 94 88 121 79 59 16 111 105 134 138 109 51 20 25 110 81 29 86 108 70 137 132 65 85 142 18 75 26 146 97 100 143 5 107 82 95 103 98 
